instances/shortest_path/discrete/shortest_path_6_10.lp
\ Model nohadani_6_10
\ LP format - for model browsing. Use MPS format to capture full model detail.
\ Signature: 0x9d6f60db6d04e09d
Minimize
  29.73213749463701 y[0,1] + 19.23538406167134 y[0,2]
   + 1.414213562373095 y[0,4] + 15.03329637837291 y[0,5]
   + 29.73213749463701 y[1,0] + 26.57066051117285 y[1,2]
   + 72.24956747275377 y[1,3] + 30.36445290137795 y[1,4]
   + 17.0293863659264 y[1,5] + 19.23538406167134 y[2,0]
   + 26.57066051117285 y[2,1] + 70.21395872616783 y[2,3]
   + 18.43908891458577 y[2,4] + 23.3238075793812 y[2,5]
   + 72.24956747275377 y[3,1] + 70.21395872616783 y[3,2]
   + 1.414213562373095 y[4,0] + 30.36445290137795 y[4,1]
   + 18.43908891458577 y[4,2] + 16.1245154965971 y[4,5]
   + 15.03329637837291 y[5,0] + 17.0293863659264 y[5,1]
   + 23.3238075793812 y[5,2] + 16.1245154965971 y[5,4] + x[0,1] + x[0,2]
   + x[0,4] + x[0,5] + x[1,0] + x[1,2] + x[1,3] + x[1,4] + x[1,5] + x[2,0]
   + x[2,1] + x[2,3] + x[2,4] + x[2,5] + x[3,1] + x[3,2] + x[4,0] + x[4,1]
   + x[4,2] + x[4,5] + x[5,0] + x[5,1] + x[5,2] + x[5,4]
   + 2.973213749463701 r[0,1] + 1.923538406167134 r[0,2]
   + 0.1414213562373095 r[0,4] + 1.503329637837291 r[0,5]
   + 2.973213749463701 r[1,0] + 2.657066051117285 r[1,2]
   + 7.224956747275377 r[1,3] + 3.036445290137795 r[1,4]
   + 1.70293863659264 r[1,5] + 1.923538406167134 r[2,0]
   + 2.657066051117285 r[2,1] + 7.021395872616783 r[2,3]
   + 1.843908891458578 r[2,4] + 2.33238075793812 r[2,5]
   + 7.224956747275377 r[3,1] + 7.021395872616783 r[3,2]
   + 0.1414213562373095 r[4,0] + 3.036445290137795 r[4,1]
   + 1.843908891458578 r[4,2] + 1.61245154965971 r[4,5]
   + 1.503329637837291 r[5,0] + 1.70293863659264 r[5,1]
   + 2.33238075793812 r[5,2] + 1.61245154965971 r[5,4]
Subject To
 flow_cons_inner_nodes[1]: y[0,1] - y[1,0] - y[1,2] - y[1,3] - y[1,4]
   - y[1,5] + y[2,1] + y[3,1] + y[4,1] + y[5,1] = 0
 flow_cons_inner_nodes[2]: y[0,2] + y[1,2] - y[2,0] - y[2,1] - y[2,3]
   - y[2,4] - y[2,5] + y[3,2] + y[4,2] + y[5,2] = 0
 flow_cons_inner_nodes[4]: y[0,4] + y[1,4] + y[2,4] - y[4,0] - y[4,1]
   - y[4,2] - y[4,5] + y[5,4] = 0
 flow_cons_inner_nodes[5]: y[0,5] + y[1,5] + y[2,5] + y[4,5] - y[5,0]
   - y[5,1] - y[5,2] - y[5,4] = 0
 flow_cons_source: y[0,1] + y[0,2] + y[0,4] + y[0,5] - y[1,0] - y[2,0]
   - y[4,0] - y[5,0] = 1
 flow_cons_target: y[1,3] + y[2,3] - y[3,1] - y[3,2] = 1
 primal_lower: 0.3470473860388143 x[0,1] + 0.731422129063538 x[0,2]
   + 3.617833856552566 x[0,4] + 2.27577032471077 x[0,5]
   + 0.1486265046815666 x[1,0] + 2.517918446101746 x[1,2]
   + 0.5706851124156406 x[1,3] + 0.0891029708377342 x[1,4]
   + 1.901374601146365 x[1,5] + 4.243545001330198 x[2,0]
   + 0.8347267853252531 x[2,1] + 0.4143244463027779 x[2,3]
   + 2.558056422262234 x[2,4] + 0.2633353838493397 x[2,5]
   + 0.6469888057911414 x[3,1] + 1.133663469684229 x[3,2]
   + 0.8369909660781258 x[4,0] + 0.6326215263900827 x[4,1]
   + 1.618173950503176 x[4,2] + 2.855066836324835 x[4,5]
   + 2.61293016156836 x[5,0] + 2.180281843826231 x[5,1]
   + 1.258672551293002 x[5,2] + 3.576410237821938 x[5,4] + 47 u[0,1]
   + 55 u[0,2] + 49 u[0,4] + 26 u[0,5] + 99 u[1,0] + 85 u[1,2] + 64 u[1,3]
   + 91 u[1,4] + 44 u[1,5] + 41 u[2,0] + 87 u[2,1] + 46 u[2,3] + 55 u[2,4]
   + 51 u[2,5] + 72 u[3,1] + 68 u[3,2] + 32 u[4,0] + 31 u[4,1] + 36 u[4,2]
   + 45 u[4,5] + 64 u[5,0] + 3 u[5,1] + 27 u[5,2] + 14 u[5,4] <= 112
 mccormick1[0,1]: - u[0,1] + r[0,1] <= 0
 mccormick1[0,2]: - u[0,2] + r[0,2] <= 0
 mccormick1[0,4]: - u[0,4] + r[0,4] <= 0
 mccormick1[0,5]: - u[0,5] + r[0,5] <= 0
 mccormick1[1,0]: - u[1,0] + r[1,0] <= 0
 mccormick1[1,2]: - u[1,2] + r[1,2] <= 0
 mccormick1[1,3]: - u[1,3] + r[1,3] <= 0
 mccormick1[1,4]: - u[1,4] + r[1,4] <= 0
 mccormick1[1,5]: - u[1,5] + r[1,5] <= 0
 mccormick1[2,0]: - u[2,0] + r[2,0] <= 0
 mccormick1[2,1]: - u[2,1] + r[2,1] <= 0
 mccormick1[2,3]: - u[2,3] + r[2,3] <= 0
 mccormick1[2,4]: - u[2,4] + r[2,4] <= 0
 mccormick1[2,5]: - u[2,5] + r[2,5] <= 0
 mccormick1[3,1]: - u[3,1] + r[3,1] <= 0
 mccormick1[3,2]: - u[3,2] + r[3,2] <= 0
 mccormick1[4,0]: - u[4,0] + r[4,0] <= 0
 mccormick1[4,1]: - u[4,1] + r[4,1] <= 0
 mccormick1[4,2]: - u[4,2] + r[4,2] <= 0
 mccormick1[4,5]: - u[4,5] + r[4,5] <= 0
 mccormick1[5,0]: - u[5,0] + r[5,0] <= 0
 mccormick1[5,1]: - u[5,1] + r[5,1] <= 0
 mccormick1[5,2]: - u[5,2] + r[5,2] <= 0
 mccormick1[5,4]: - u[5,4] + r[5,4] <= 0
 mccormick2[0,1]: - y[0,1] + r[0,1] <= 0
 mccormick2[0,2]: - y[0,2] + r[0,2] <= 0
 mccormick2[0,4]: - y[0,4] + r[0,4] <= 0
 mccormick2[0,5]: - y[0,5] + r[0,5] <= 0
 mccormick2[1,0]: - y[1,0] + r[1,0] <= 0
 mccormick2[1,2]: - y[1,2] + r[1,2] <= 0
 mccormick2[1,3]: - y[1,3] + r[1,3] <= 0
 mccormick2[1,4]: - y[1,4] + r[1,4] <= 0
 mccormick2[1,5]: - y[1,5] + r[1,5] <= 0
 mccormick2[2,0]: - y[2,0] + r[2,0] <= 0
 mccormick2[2,1]: - y[2,1] + r[2,1] <= 0
 mccormick2[2,3]: - y[2,3] + r[2,3] <= 0
 mccormick2[2,4]: - y[2,4] + r[2,4] <= 0
 mccormick2[2,5]: - y[2,5] + r[2,5] <= 0
 mccormick2[3,1]: - y[3,1] + r[3,1] <= 0
 mccormick2[3,2]: - y[3,2] + r[3,2] <= 0
 mccormick2[4,0]: - y[4,0] + r[4,0] <= 0
 mccormick2[4,1]: - y[4,1] + r[4,1] <= 0
 mccormick2[4,2]: - y[4,2] + r[4,2] <= 0
 mccormick2[4,5]: - y[4,5] + r[4,5] <= 0
 mccormick2[5,0]: - y[5,0] + r[5,0] <= 0
 mccormick2[5,1]: - y[5,1] + r[5,1] <= 0
 mccormick2[5,2]: - y[5,2] + r[5,2] <= 0
 mccormick2[5,4]: - y[5,4] + r[5,4] <= 0
 mccormick3[0,1]: - y[0,1] - u[0,1] + r[0,1] >= -1
 mccormick3[0,2]: - y[0,2] - u[0,2] + r[0,2] >= -1
 mccormick3[0,4]: - y[0,4] - u[0,4] + r[0,4] >= -1
 mccormick3[0,5]: - y[0,5] - u[0,5] + r[0,5] >= -1
 mccormick3[1,0]: - y[1,0] - u[1,0] + r[1,0] >= -1
 mccormick3[1,2]: - y[1,2] - u[1,2] + r[1,2] >= -1
 mccormick3[1,3]: - y[1,3] - u[1,3] + r[1,3] >= -1
 mccormick3[1,4]: - y[1,4] - u[1,4] + r[1,4] >= -1
 mccormick3[1,5]: - y[1,5] - u[1,5] + r[1,5] >= -1
 mccormick3[2,0]: - y[2,0] - u[2,0] + r[2,0] >= -1
 mccormick3[2,1]: - y[2,1] - u[2,1] + r[2,1] >= -1
 mccormick3[2,3]: - y[2,3] - u[2,3] + r[2,3] >= -1
 mccormick3[2,4]: - y[2,4] - u[2,4] + r[2,4] >= -1
 mccormick3[2,5]: - y[2,5] - u[2,5] + r[2,5] >= -1
 mccormick3[3,1]: - y[3,1] - u[3,1] + r[3,1] >= -1
 mccormick3[3,2]: - y[3,2] - u[3,2] + r[3,2] >= -1
 mccormick3[4,0]: - y[4,0] - u[4,0] + r[4,0] >= -1
 mccormick3[4,1]: - y[4,1] - u[4,1] + r[4,1] >= -1
 mccormick3[4,2]: - y[4,2] - u[4,2] + r[4,2] >= -1
 mccormick3[4,5]: - y[4,5] - u[4,5] + r[4,5] >= -1
 mccormick3[5,0]: - y[5,0] - u[5,0] + r[5,0] >= -1
 mccormick3[5,1]: - y[5,1] - u[5,1] + r[5,1] >= -1
 mccormick3[5,2]: - y[5,2] - u[5,2] + r[5,2] >= -1
 mccormick3[5,4]: - y[5,4] - u[5,4] + r[5,4] >= -1
Bounds
Binaries
 y[0,1] y[0,2] y[0,4] y[0,5] y[1,0] y[1,2] y[1,3] y[1,4] y[1,5] y[2,0]
 y[2,1] y[2,3] y[2,4] y[2,5] y[3,1] y[3,2] y[4,0] y[4,1] y[4,2] y[4,5]
 y[5,0] y[5,1] y[5,2] y[5,4] x[0,1] x[0,2] x[0,4] x[0,5] x[1,0] x[1,2]
 x[1,3] x[1,4] x[1,5] x[2,0] x[2,1] x[2,3] x[2,4] x[2,5] x[3,1] x[3,2]
 x[4,0] x[4,1] x[4,2] x[4,5] x[5,0] x[5,1] x[5,2] x[5,4] u[0,1] u[0,2]
 u[0,4] u[0,5] u[1,0] u[1,2] u[1,3] u[1,4] u[1,5] u[2,0] u[2,1] u[2,3]
 u[2,4] u[2,5] u[3,1] u[3,2] u[4,0] u[4,1] u[4,2] u[4,5] u[5,0] u[5,1]
 u[5,2] u[5,4] r[0,1] r[0,2] r[0,4] r[0,5] r[1,0] r[1,2] r[1,3] r[1,4]
 r[1,5] r[2,0] r[2,1] r[2,3] r[2,4] r[2,5] r[3,1] r[3,2] r[4,0] r[4,1]
 r[4,2] r[4,5] r[5,0] r[5,1] r[5,2] r[5,4]
End
