instances/shortest_path/discrete/shortest_path_6_10.mps
* Signature: 0x9d6f60db6d04e09d
NAME nohadani_6_10
ROWS
 N  OBJ
 E  flow_cons_inner_nodes[1]
 E  flow_cons_inner_nodes[2]
 E  flow_cons_inner_nodes[4]
 E  flow_cons_inner_nodes[5]
 E  flow_cons_source
 E  flow_cons_target
 L  primal_lower
 L  mccormick1[0,1]
 L  mccormick1[0,2]
 L  mccormick1[0,4]
 L  mccormick1[0,5]
 L  mccormick1[1,0]
 L  mccormick1[1,2]
 L  mccormick1[1,3]
 L  mccormick1[1,4]
 L  mccormick1[1,5]
 L  mccormick1[2,0]
 L  mccormick1[2,1]
 L  mccormick1[2,3]
 L  mccormick1[2,4]
 L  mccormick1[2,5]
 L  mccormick1[3,1]
 L  mccormick1[3,2]
 L  mccormick1[4,0]
 L  mccormick1[4,1]
 L  mccormick1[4,2]
 L  mccormick1[4,5]
 L  mccormick1[5,0]
 L  mccormick1[5,1]
 L  mccormick1[5,2]
 L  mccormick1[5,4]
 L  mccormick2[0,1]
 L  mccormick2[0,2]
 L  mccormick2[0,4]
 L  mccormick2[0,5]
 L  mccormick2[1,0]
 L  mccormick2[1,2]
 L  mccormick2[1,3]
 L  mccormick2[1,4]
 L  mccormick2[1,5]
 L  mccormick2[2,0]
 L  mccormick2[2,1]
 L  mccormick2[2,3]
 L  mccormick2[2,4]
 L  mccormick2[2,5]
 L  mccormick2[3,1]
 L  mccormick2[3,2]
 L  mccormick2[4,0]
 L  mccormick2[4,1]
 L  mccormick2[4,2]
 L  mccormick2[4,5]
 L  mccormick2[5,0]
 L  mccormick2[5,1]
 L  mccormick2[5,2]
 L  mccormick2[5,4]
 G  mccormick3[0,1]
 G  mccormick3[0,2]
 G  mccormick3[0,4]
 G  mccormick3[0,5]
 G  mccormick3[1,0]
 G  mccormick3[1,2]
 G  mccormick3[1,3]
 G  mccormick3[1,4]
 G  mccormick3[1,5]
 G  mccormick3[2,0]
 G  mccormick3[2,1]
 G  mccormick3[2,3]
 G  mccormick3[2,4]
 G  mccormick3[2,5]
 G  mccormick3[3,1]
 G  mccormick3[3,2]
 G  mccormick3[4,0]
 G  mccormick3[4,1]
 G  mccormick3[4,2]
 G  mccormick3[4,5]
 G  mccormick3[5,0]
 G  mccormick3[5,1]
 G  mccormick3[5,2]
 G  mccormick3[5,4]
COLUMNS
    MARKER    'MARKER'                 'INTORG'
    y[0,1]    OBJ       2.9732137494637012e+01
    y[0,1]    flow_cons_inner_nodes[1]  1
    y[0,1]    flow_cons_source  1
    y[0,1]    mccormick2[0,1]  -1
    y[0,1]    mccormick3[0,1]  -1
    y[0,2]    OBJ       1.9235384061671343e+01
    y[0,2]    flow_cons_inner_nodes[2]  1
    y[0,2]    flow_cons_source  1
    y[0,2]    mccormick2[0,2]  -1
    y[0,2]    mccormick3[0,2]  -1
    y[0,4]    OBJ       1.4142135623730951e+00
    y[0,4]    flow_cons_inner_nodes[4]  1
    y[0,4]    flow_cons_source  1
    y[0,4]    mccormick2[0,4]  -1
    y[0,4]    mccormick3[0,4]  -1
    y[0,5]    OBJ       1.5033296378372908e+01
    y[0,5]    flow_cons_inner_nodes[5]  1
    y[0,5]    flow_cons_source  1
    y[0,5]    mccormick2[0,5]  -1
    y[0,5]    mccormick3[0,5]  -1
    y[1,0]    OBJ       2.9732137494637012e+01
    y[1,0]    flow_cons_inner_nodes[1]  -1
    y[1,0]    flow_cons_source  -1
    y[1,0]    mccormick2[1,0]  -1
    y[1,0]    mccormick3[1,0]  -1
    y[1,2]    OBJ       2.6570660511172846e+01
    y[1,2]    flow_cons_inner_nodes[1]  -1
    y[1,2]    flow_cons_inner_nodes[2]  1
    y[1,2]    mccormick2[1,2]  -1
    y[1,2]    mccormick3[1,2]  -1
    y[1,3]    OBJ       7.2249567472753768e+01
    y[1,3]    flow_cons_inner_nodes[1]  -1
    y[1,3]    flow_cons_target  1
    y[1,3]    mccormick2[1,3]  -1
    y[1,3]    mccormick3[1,3]  -1
    y[1,4]    OBJ       3.0364452901377952e+01
    y[1,4]    flow_cons_inner_nodes[1]  -1
    y[1,4]    flow_cons_inner_nodes[4]  1
    y[1,4]    mccormick2[1,4]  -1
    y[1,4]    mccormick3[1,4]  -1
    y[1,5]    OBJ       1.7029386365926403e+01
    y[1,5]    flow_cons_inner_nodes[1]  -1
    y[1,5]    flow_cons_inner_nodes[5]  1
    y[1,5]    mccormick2[1,5]  -1
    y[1,5]    mccormick3[1,5]  -1
    y[2,0]    OBJ       1.9235384061671343e+01
    y[2,0]    flow_cons_inner_nodes[2]  -1
    y[2,0]    flow_cons_source  -1
    y[2,0]    mccormick2[2,0]  -1
    y[2,0]    mccormick3[2,0]  -1
    y[2,1]    OBJ       2.6570660511172846e+01
    y[2,1]    flow_cons_inner_nodes[1]  1
    y[2,1]    flow_cons_inner_nodes[2]  -1
    y[2,1]    mccormick2[2,1]  -1
    y[2,1]    mccormick3[2,1]  -1
    y[2,3]    OBJ       7.0213958726167832e+01
    y[2,3]    flow_cons_inner_nodes[2]  -1
    y[2,3]    flow_cons_target  1
    y[2,3]    mccormick2[2,3]  -1
    y[2,3]    mccormick3[2,3]  -1
    y[2,4]    OBJ       1.8439088914585774e+01
    y[2,4]    flow_cons_inner_nodes[2]  -1
    y[2,4]    flow_cons_inner_nodes[4]  1
    y[2,4]    mccormick2[2,4]  -1
    y[2,4]    mccormick3[2,4]  -1
    y[2,5]    OBJ       2.3323807579381203e+01
    y[2,5]    flow_cons_inner_nodes[2]  -1
    y[2,5]    flow_cons_inner_nodes[5]  1
    y[2,5]    mccormick2[2,5]  -1
    y[2,5]    mccormick3[2,5]  -1
    y[3,1]    OBJ       7.2249567472753768e+01
    y[3,1]    flow_cons_inner_nodes[1]  1
    y[3,1]    flow_cons_target  -1
    y[3,1]    mccormick2[3,1]  -1
    y[3,1]    mccormick3[3,1]  -1
    y[3,2]    OBJ       7.0213958726167832e+01
    y[3,2]    flow_cons_inner_nodes[2]  1
    y[3,2]    flow_cons_target  -1
    y[3,2]    mccormick2[3,2]  -1
    y[3,2]    mccormick3[3,2]  -1
    y[4,0]    OBJ       1.4142135623730951e+00
    y[4,0]    flow_cons_inner_nodes[4]  -1
    y[4,0]    flow_cons_source  -1
    y[4,0]    mccormick2[4,0]  -1
    y[4,0]    mccormick3[4,0]  -1
    y[4,1]    OBJ       3.0364452901377952e+01
    y[4,1]    flow_cons_inner_nodes[1]  1
    y[4,1]    flow_cons_inner_nodes[4]  -1
    y[4,1]    mccormick2[4,1]  -1
    y[4,1]    mccormick3[4,1]  -1
    y[4,2]    OBJ       1.8439088914585774e+01
    y[4,2]    flow_cons_inner_nodes[2]  1
    y[4,2]    flow_cons_inner_nodes[4]  -1
    y[4,2]    mccormick2[4,2]  -1
    y[4,2]    mccormick3[4,2]  -1
    y[4,5]    OBJ       16.1245154965971
    y[4,5]    flow_cons_inner_nodes[4]  -1
    y[4,5]    flow_cons_inner_nodes[5]  1
    y[4,5]    mccormick2[4,5]  -1
    y[4,5]    mccormick3[4,5]  -1
    y[5,0]    OBJ       1.5033296378372908e+01
    y[5,0]    flow_cons_inner_nodes[5]  -1
    y[5,0]    flow_cons_source  -1
    y[5,0]    mccormick2[5,0]  -1
    y[5,0]    mccormick3[5,0]  -1
    y[5,1]    OBJ       1.7029386365926403e+01
    y[5,1]    flow_cons_inner_nodes[1]  1
    y[5,1]    flow_cons_inner_nodes[5]  -1
    y[5,1]    mccormick2[5,1]  -1
    y[5,1]    mccormick3[5,1]  -1
    y[5,2]    OBJ       2.3323807579381203e+01
    y[5,2]    flow_cons_inner_nodes[2]  1
    y[5,2]    flow_cons_inner_nodes[5]  -1
    y[5,2]    mccormick2[5,2]  -1
    y[5,2]    mccormick3[5,2]  -1
    y[5,4]    OBJ       16.1245154965971
    y[5,4]    flow_cons_inner_nodes[4]  1
    y[5,4]    flow_cons_inner_nodes[5]  -1
    y[5,4]    mccormick2[5,4]  -1
    y[5,4]    mccormick3[5,4]  -1
    x[0,1]    OBJ       1
    x[0,1]    primal_lower  3.4704738603881430e-01
    x[0,2]    OBJ       1
    x[0,2]    primal_lower  0.731422129063538
    x[0,4]    OBJ       1
    x[0,4]    primal_lower  3.6178338565525663e+00
    x[0,5]    OBJ       1
    x[0,5]    primal_lower  2.2757703247107703e+00
    x[1,0]    OBJ       1
    x[1,0]    primal_lower  1.4862650468156663e-01
    x[1,2]    OBJ       1
    x[1,2]    primal_lower  2.5179184461017456e+00
    x[1,3]    OBJ       1
    x[1,3]    primal_lower  5.7068511241564057e-01
    x[1,4]    OBJ       1
    x[1,4]    primal_lower  8.9102970837734219e-02
    x[1,5]    OBJ       1
    x[1,5]    primal_lower  1.9013746011463653e+00
    x[2,0]    OBJ       1
    x[2,0]    primal_lower  4.2435450013301983e+00
    x[2,1]    OBJ       1
    x[2,1]    primal_lower  8.3472678532525313e-01
    x[2,3]    OBJ       1
    x[2,3]    primal_lower  4.1432444630277793e-01
    x[2,4]    OBJ       1
    x[2,4]    primal_lower  2.5580564222622337e+00
    x[2,5]    OBJ       1
    x[2,5]    primal_lower  2.6333538384933974e-01
    x[3,1]    OBJ       1
    x[3,1]    primal_lower  6.4698880579114137e-01
    x[3,2]    OBJ       1
    x[3,2]    primal_lower  1.1336634696842287e+00
    x[4,0]    OBJ       1
    x[4,0]    primal_lower  8.3699096607812584e-01
    x[4,1]    OBJ       1
    x[4,1]    primal_lower  6.3262152639008273e-01
    x[4,2]    OBJ       1
    x[4,2]    primal_lower  1.6181739505031765e+00
    x[4,5]    OBJ       1
    x[4,5]    primal_lower  2.8550668363248355e+00
    x[5,0]    OBJ       1
    x[5,0]    primal_lower  2.6129301615683604e+00
    x[5,1]    OBJ       1
    x[5,1]    primal_lower  2.1802818438262306e+00
    x[5,2]    OBJ       1
    x[5,2]    primal_lower  1.2586725512930024e+00
    x[5,4]    OBJ       1
    x[5,4]    primal_lower  3.5764102378219378e+00
    u[0,1]    primal_lower  47
    u[0,1]    mccormick1[0,1]  -1
    u[0,1]    mccormick3[0,1]  -1
    u[0,2]    primal_lower  55
    u[0,2]    mccormick1[0,2]  -1
    u[0,2]    mccormick3[0,2]  -1
    u[0,4]    primal_lower  49
    u[0,4]    mccormick1[0,4]  -1
    u[0,4]    mccormick3[0,4]  -1
    u[0,5]    primal_lower  26
    u[0,5]    mccormick1[0,5]  -1
    u[0,5]    mccormick3[0,5]  -1
    u[1,0]    primal_lower  99
    u[1,0]    mccormick1[1,0]  -1
    u[1,0]    mccormick3[1,0]  -1
    u[1,2]    primal_lower  85
    u[1,2]    mccormick1[1,2]  -1
    u[1,2]    mccormick3[1,2]  -1
    u[1,3]    primal_lower  64
    u[1,3]    mccormick1[1,3]  -1
    u[1,3]    mccormick3[1,3]  -1
    u[1,4]    primal_lower  91
    u[1,4]    mccormick1[1,4]  -1
    u[1,4]    mccormick3[1,4]  -1
    u[1,5]    primal_lower  44
    u[1,5]    mccormick1[1,5]  -1
    u[1,5]    mccormick3[1,5]  -1
    u[2,0]    primal_lower  41
    u[2,0]    mccormick1[2,0]  -1
    u[2,0]    mccormick3[2,0]  -1
    u[2,1]    primal_lower  87
    u[2,1]    mccormick1[2,1]  -1
    u[2,1]    mccormick3[2,1]  -1
    u[2,3]    primal_lower  46
    u[2,3]    mccormick1[2,3]  -1
    u[2,3]    mccormick3[2,3]  -1
    u[2,4]    primal_lower  55
    u[2,4]    mccormick1[2,4]  -1
    u[2,4]    mccormick3[2,4]  -1
    u[2,5]    primal_lower  51
    u[2,5]    mccormick1[2,5]  -1
    u[2,5]    mccormick3[2,5]  -1
    u[3,1]    primal_lower  72
    u[3,1]    mccormick1[3,1]  -1
    u[3,1]    mccormick3[3,1]  -1
    u[3,2]    primal_lower  68
    u[3,2]    mccormick1[3,2]  -1
    u[3,2]    mccormick3[3,2]  -1
    u[4,0]    primal_lower  32
    u[4,0]    mccormick1[4,0]  -1
    u[4,0]    mccormick3[4,0]  -1
    u[4,1]    primal_lower  31
    u[4,1]    mccormick1[4,1]  -1
    u[4,1]    mccormick3[4,1]  -1
    u[4,2]    primal_lower  36
    u[4,2]    mccormick1[4,2]  -1
    u[4,2]    mccormick3[4,2]  -1
    u[4,5]    primal_lower  45
    u[4,5]    mccormick1[4,5]  -1
    u[4,5]    mccormick3[4,5]  -1
    u[5,0]    primal_lower  64
    u[5,0]    mccormick1[5,0]  -1
    u[5,0]    mccormick3[5,0]  -1
    u[5,1]    primal_lower  3
    u[5,1]    mccormick1[5,1]  -1
    u[5,1]    mccormick3[5,1]  -1
    u[5,2]    primal_lower  27
    u[5,2]    mccormick1[5,2]  -1
    u[5,2]    mccormick3[5,2]  -1
    u[5,4]    primal_lower  14
    u[5,4]    mccormick1[5,4]  -1
    u[5,4]    mccormick3[5,4]  -1
    r[0,1]    OBJ       2.9732137494637012e+00
    r[0,1]    mccormick1[0,1]  1
    r[0,1]    mccormick2[0,1]  1
    r[0,1]    mccormick3[0,1]  1
    r[0,2]    OBJ       1.9235384061671343e+00
    r[0,2]    mccormick1[0,2]  1
    r[0,2]    mccormick2[0,2]  1
    r[0,2]    mccormick3[0,2]  1
    r[0,4]    OBJ       1.4142135623730953e-01
    r[0,4]    mccormick1[0,4]  1
    r[0,4]    mccormick2[0,4]  1
    r[0,4]    mccormick3[0,4]  1
    r[0,5]    OBJ       1.5033296378372909e+00
    r[0,5]    mccormick1[0,5]  1
    r[0,5]    mccormick2[0,5]  1
    r[0,5]    mccormick3[0,5]  1
    r[1,0]    OBJ       2.9732137494637012e+00
    r[1,0]    mccormick1[1,0]  1
    r[1,0]    mccormick2[1,0]  1
    r[1,0]    mccormick3[1,0]  1
    r[1,2]    OBJ       2.6570660511172850e+00
    r[1,2]    mccormick1[1,2]  1
    r[1,2]    mccormick2[1,2]  1
    r[1,2]    mccormick3[1,2]  1
    r[1,3]    OBJ       7.2249567472753773e+00
    r[1,3]    mccormick1[1,3]  1
    r[1,3]    mccormick2[1,3]  1
    r[1,3]    mccormick3[1,3]  1
    r[1,4]    OBJ       3.0364452901377952e+00
    r[1,4]    mccormick1[1,4]  1
    r[1,4]    mccormick2[1,4]  1
    r[1,4]    mccormick3[1,4]  1
    r[1,5]    OBJ       1.7029386365926404e+00
    r[1,5]    mccormick1[1,5]  1
    r[1,5]    mccormick2[1,5]  1
    r[1,5]    mccormick3[1,5]  1
    r[2,0]    OBJ       1.9235384061671343e+00
    r[2,0]    mccormick1[2,0]  1
    r[2,0]    mccormick2[2,0]  1
    r[2,0]    mccormick3[2,0]  1
    r[2,1]    OBJ       2.6570660511172850e+00
    r[2,1]    mccormick1[2,1]  1
    r[2,1]    mccormick2[2,1]  1
    r[2,1]    mccormick3[2,1]  1
    r[2,3]    OBJ       7.0213958726167833e+00
    r[2,3]    mccormick1[2,3]  1
    r[2,3]    mccormick2[2,3]  1
    r[2,3]    mccormick3[2,3]  1
    r[2,4]    OBJ       1.8439088914585775e+00
    r[2,4]    mccormick1[2,4]  1
    r[2,4]    mccormick2[2,4]  1
    r[2,4]    mccormick3[2,4]  1
    r[2,5]    OBJ       2.3323807579381204e+00
    r[2,5]    mccormick1[2,5]  1
    r[2,5]    mccormick2[2,5]  1
    r[2,5]    mccormick3[2,5]  1
    r[3,1]    OBJ       7.2249567472753773e+00
    r[3,1]    mccormick1[3,1]  1
    r[3,1]    mccormick2[3,1]  1
    r[3,1]    mccormick3[3,1]  1
    r[3,2]    OBJ       7.0213958726167833e+00
    r[3,2]    mccormick1[3,2]  1
    r[3,2]    mccormick2[3,2]  1
    r[3,2]    mccormick3[3,2]  1
    r[4,0]    OBJ       1.4142135623730953e-01
    r[4,0]    mccormick1[4,0]  1
    r[4,0]    mccormick2[4,0]  1
    r[4,0]    mccormick3[4,0]  1
    r[4,1]    OBJ       3.0364452901377952e+00
    r[4,1]    mccormick1[4,1]  1
    r[4,1]    mccormick2[4,1]  1
    r[4,1]    mccormick3[4,1]  1
    r[4,2]    OBJ       1.8439088914585775e+00
    r[4,2]    mccormick1[4,2]  1
    r[4,2]    mccormick2[4,2]  1
    r[4,2]    mccormick3[4,2]  1
    r[4,5]    OBJ       1.6124515496597098e+00
    r[4,5]    mccormick1[4,5]  1
    r[4,5]    mccormick2[4,5]  1
    r[4,5]    mccormick3[4,5]  1
    r[5,0]    OBJ       1.5033296378372909e+00
    r[5,0]    mccormick1[5,0]  1
    r[5,0]    mccormick2[5,0]  1
    r[5,0]    mccormick3[5,0]  1
    r[5,1]    OBJ       1.7029386365926404e+00
    r[5,1]    mccormick1[5,1]  1
    r[5,1]    mccormick2[5,1]  1
    r[5,1]    mccormick3[5,1]  1
    r[5,2]    OBJ       2.3323807579381204e+00
    r[5,2]    mccormick1[5,2]  1
    r[5,2]    mccormick2[5,2]  1
    r[5,2]    mccormick3[5,2]  1
    r[5,4]    OBJ       1.6124515496597098e+00
    r[5,4]    mccormick1[5,4]  1
    r[5,4]    mccormick2[5,4]  1
    r[5,4]    mccormick3[5,4]  1
    MARKER    'MARKER'                 'INTEND'
RHS
    RHS1      flow_cons_source  1
    RHS1      flow_cons_target  1
    RHS1      primal_lower  112
    RHS1      mccormick3[0,1]  -1
    RHS1      mccormick3[0,2]  -1
    RHS1      mccormick3[0,4]  -1
    RHS1      mccormick3[0,5]  -1
    RHS1      mccormick3[1,0]  -1
    RHS1      mccormick3[1,2]  -1
    RHS1      mccormick3[1,3]  -1
    RHS1      mccormick3[1,4]  -1
    RHS1      mccormick3[1,5]  -1
    RHS1      mccormick3[2,0]  -1
    RHS1      mccormick3[2,1]  -1
    RHS1      mccormick3[2,3]  -1
    RHS1      mccormick3[2,4]  -1
    RHS1      mccormick3[2,5]  -1
    RHS1      mccormick3[3,1]  -1
    RHS1      mccormick3[3,2]  -1
    RHS1      mccormick3[4,0]  -1
    RHS1      mccormick3[4,1]  -1
    RHS1      mccormick3[4,2]  -1
    RHS1      mccormick3[4,5]  -1
    RHS1      mccormick3[5,0]  -1
    RHS1      mccormick3[5,1]  -1
    RHS1      mccormick3[5,2]  -1
    RHS1      mccormick3[5,4]  -1
BOUNDS
 BV BND1      y[0,1]  
 BV BND1      y[0,2]  
 BV BND1      y[0,4]  
 BV BND1      y[0,5]  
 BV BND1      y[1,0]  
 BV BND1      y[1,2]  
 BV BND1      y[1,3]  
 BV BND1      y[1,4]  
 BV BND1      y[1,5]  
 BV BND1      y[2,0]  
 BV BND1      y[2,1]  
 BV BND1      y[2,3]  
 BV BND1      y[2,4]  
 BV BND1      y[2,5]  
 BV BND1      y[3,1]  
 BV BND1      y[3,2]  
 BV BND1      y[4,0]  
 BV BND1      y[4,1]  
 BV BND1      y[4,2]  
 BV BND1      y[4,5]  
 BV BND1      y[5,0]  
 BV BND1      y[5,1]  
 BV BND1      y[5,2]  
 BV BND1      y[5,4]  
 BV BND1      x[0,1]  
 BV BND1      x[0,2]  
 BV BND1      x[0,4]  
 BV BND1      x[0,5]  
 BV BND1      x[1,0]  
 BV BND1      x[1,2]  
 BV BND1      x[1,3]  
 BV BND1      x[1,4]  
 BV BND1      x[1,5]  
 BV BND1      x[2,0]  
 BV BND1      x[2,1]  
 BV BND1      x[2,3]  
 BV BND1      x[2,4]  
 BV BND1      x[2,5]  
 BV BND1      x[3,1]  
 BV BND1      x[3,2]  
 BV BND1      x[4,0]  
 BV BND1      x[4,1]  
 BV BND1      x[4,2]  
 BV BND1      x[4,5]  
 BV BND1      x[5,0]  
 BV BND1      x[5,1]  
 BV BND1      x[5,2]  
 BV BND1      x[5,4]  
 BV BND1      u[0,1]  
 BV BND1      u[0,2]  
 BV BND1      u[0,4]  
 BV BND1      u[0,5]  
 BV BND1      u[1,0]  
 BV BND1      u[1,2]  
 BV BND1      u[1,3]  
 BV BND1      u[1,4]  
 BV BND1      u[1,5]  
 BV BND1      u[2,0]  
 BV BND1      u[2,1]  
 BV BND1      u[2,3]  
 BV BND1      u[2,4]  
 BV BND1      u[2,5]  
 BV BND1      u[3,1]  
 BV BND1      u[3,2]  
 BV BND1      u[4,0]  
 BV BND1      u[4,1]  
 BV BND1      u[4,2]  
 BV BND1      u[4,5]  
 BV BND1      u[5,0]  
 BV BND1      u[5,1]  
 BV BND1      u[5,2]  
 BV BND1      u[5,4]  
 BV BND1      r[0,1]  
 BV BND1      r[0,2]  
 BV BND1      r[0,4]  
 BV BND1      r[0,5]  
 BV BND1      r[1,0]  
 BV BND1      r[1,2]  
 BV BND1      r[1,3]  
 BV BND1      r[1,4]  
 BV BND1      r[1,5]  
 BV BND1      r[2,0]  
 BV BND1      r[2,1]  
 BV BND1      r[2,3]  
 BV BND1      r[2,4]  
 BV BND1      r[2,5]  
 BV BND1      r[3,1]  
 BV BND1      r[3,2]  
 BV BND1      r[4,0]  
 BV BND1      r[4,1]  
 BV BND1      r[4,2]  
 BV BND1      r[4,5]  
 BV BND1      r[5,0]  
 BV BND1      r[5,1]  
 BV BND1      r[5,2]  
 BV BND1      r[5,4]  
ENDATA
